(set-info :smt-lib-version 2.6)
(set-logic QF_LIA)
(set-info :source |
Alberto Griggio

|)
(set-info :category "random")
(set-info :status sat)
(declare-fun x0 () Int)
(declare-fun x1 () Int)
(declare-fun x2 () Int)
(declare-fun x3 () Int)
(declare-fun x4 () Int)
(declare-fun x5 () Int)
(declare-fun x6 () Int)
(declare-fun x7 () Int)
(declare-fun x8 () Int)
(declare-fun x9 () Int)
(declare-fun x10 () Int)
(declare-fun x11 () Int)
(declare-fun x12 () Int)
(declare-fun x13 () Int)
(declare-fun x14 () Int)
(declare-fun x15 () Int)
(declare-fun x16 () Int)
(declare-fun x17 () Int)
(declare-fun x18 () Int)
(declare-fun x19 () Int)
(declare-fun x20 () Int)
(declare-fun x21 () Int)
(declare-fun x22 () Int)
(declare-fun x23 () Int)
(declare-fun x24 () Int)
(declare-fun x25 () Int)
(declare-fun x26 () Int)
(declare-fun x27 () Int)
(declare-fun x28 () Int)
(declare-fun x29 () Int)
(assert (let ((?v_8 (* 1 x1)) (?v_2 (* 0 x7)) (?v_25 (* 1 x28)) (?v_59 (* 0 x13)) (?v_10 (* 1 x17)) (?v_61 (* 0 x20)) (?v_3 (* 1 x26)) (?v_63 (* 1 x29)) (?v_17 (* 0 x25)) (?v_75 (* 1 x9)) (?v_1 (* 0 x26)) (?v_19 (* 1 x7)) (?v_36 (* 1 x6)) (?v_6 (* 1 x16)) (?v_32 (* 0 x3)) (?v_12 (* 0 x5)) (?v_38 (* 1 x3)) (?v_43 (* 1 x10)) (?v_51 (* 0 x17)) (?v_9 (* 0 x2)) (?v_23 (* 1 x24)) (?v_44 (* 1 x4)) (?v_14 (* 0 x14)) (?v_11 (* 0 x10)) (?v_13 (* 0 x27)) (?v_62 (* 1 x13)) (?v_67 (* 1 x2)) (?v_45 (* 1 x27)) (?v_15 (* 0 x16)) (?v_16 (* 0 x6)) (?v_34 (* 1 x22)) (?v_18 (* 0 x19)) (?v_37 (* 0 x4)) (?v_74 (* 1 x8)) (?v_30 (* 0 x8)) (?v_31 (* 0 x1)) (?v_71 (* 1 x18)) (?v_66 (* 1 x15)) (?v_41 (* 0 x18)) (?v_48 (* 0 x0)) (?v_28 (* 0 x22)) (?v_4 (* 0 x11)) (?v_29 (* 0 x24)) (?v_52 (* 1 x20)) (?v_55 (* 1 x0)) (?v_24 (* 0 x28)) (?v_50 (* 0 x21)) (?v_54 (* 1 x11)) (?v_65 (* 1 x5)) (?v_68 (* 1 x12)) (?v_56 (* 0 x9)) (?v_58 (* 1 x21)) (?v_81 (* 1 x23)) (?v_60 (* 0 x15)) (?v_84 (* 1 x14)) (?v_0 (* 0 x23)) (?v_72 (* 1 x19)) (?v_40 (* 0 x29)) (?v_73 (* 1 x25)) (?v_7 (* 0 x12)) (?v_35 (* (- 1) x0)) (?v_46 (* (- 1) x2)) (?v_5 (* (- 1) x23)) (?v_47 (* (- 1) x25)) (?v_22 (* (- 1) x29)) (?v_49 (* (- 1) x26)) (?v_21 (* (- 1) x5)) (?v_53 (* (- 1) x17)) (?v_70 (* (- 1) x27)) (?v_26 (* (- 1) x7)) (?v_64 (* (- 1) x9)) (?v_20 (* (- 1) x18)) (?v_27 (* (- 1) x12)) (?v_76 (* (- 1) x13)) (?v_33 (* (- 1) x16)) (?v_42 (* (- 1) x20)) (?v_39 (* (- 1) x14)) (?v_85 (* (- 1) x1)) (?v_57 (* (- 1) x8)) (?v_83 (* (- 1) x10)) (?v_82 (* (- 1) x4)) (?v_79 (* (- 1) x15)) (?v_69 (* (- 1) x11)) (?v_77 (* (- 1) x6)) (?v_80 (* (- 1) x21)) (?v_78 (* (- 1) x24)) (?v_86 (* (- 1) x3)) (?v_87 (* (- 1) x28)) (?v_89 (* (- 1) x22)) (?v_88 (* (- 1) x19))) (and (<= (+ ?v_8 ?v_16 ?v_2 ?v_35 ?v_31 ?v_15 ?v_25 ?v_1 ?v_59 ?v_46 ?v_4 ?v_24 ?v_0 ?v_5 ?v_10 ?v_61 ?v_47 ?v_3 ?v_63 ?v_17 ?v_0 ?v_75 ?v_1 ?v_19 ?v_2 ?v_22 ?v_36 ?v_18 ?v_3 ?v_29) (- 1)) (<= (+ ?v_6 ?v_11 ?v_4 ?v_32 ?v_3 ?v_7 ?v_12 ?v_5 ?v_38 ?v_6 ?v_49 ?v_43 ?v_21 ?v_7 ?v_9 ?v_51 ?v_8 ?v_9 ?v_4 ?v_23 ?v_10 ?v_53 ?v_44 ?v_14 ?v_11 ?v_13 ?v_12 ?v_62 ?v_13 ?v_67) (- 1)) (<= (+ ?v_45 ?v_14 ?v_15 ?v_70 ?v_26 ?v_16 ?v_34 ?v_64 ?v_9 ?v_17 ?v_18 ?v_20 ?v_37 ?v_18 ?v_27 ?v_19 ?v_76 ?v_3 ?v_20 ?v_21 ?v_16 ?v_22 ?v_41 ?v_4 ?v_33 ?v_23 ?v_9 ?v_30 ?v_17 ?v_2) (- 1)) (<= (+ ?v_74 ?v_28 ?v_42 ?v_40 ?v_24 ?v_25 ?v_26 ?v_27 ?v_28 ?v_29 ?v_30 ?v_16 ?v_31 ?v_32 ?v_33 ?v_71 ?v_39 ?v_34 ?v_35 ?v_36 ?v_66 ?v_37 ?v_2 ?v_38 ?v_11 ?v_39 ?v_85 ?v_1 ?v_40 ?v_3) (- 1)) (<= (+ ?v_41 ?v_13 ?v_42 ?v_20 ?v_27 ?v_48 ?v_43 ?v_3 ?v_28 ?v_11 ?v_44 ?v_45 ?v_32 ?v_32 ?v_26 ?v_46 ?v_47 ?v_48 ?v_4 ?v_29 ?v_49 ?v_52 ?v_13 ?v_55 ?v_57 ?v_24 ?v_0 ?v_42 ?v_83 ?v_41) 1) (<= (+ ?v_6 ?v_36 ?v_16 ?v_13 ?v_50 ?v_4 ?v_60 ?v_50 ?v_16 ?v_51 ?v_28 ?v_9 ?v_13 ?v_32 ?v_45 ?v_54 ?v_29 ?v_14 ?v_26 ?v_45 ?v_43 ?v_52 ?v_53 ?v_15 ?v_8 ?v_51 ?v_54 ?v_82 ?v_13 ?v_55) (- 1)) (<= (+ ?v_23 ?v_24 ?v_65 ?v_68 ?v_56 ?v_56 ?v_54 ?v_79 ?v_41 ?v_57 ?v_58 ?v_57 ?v_49 ?v_10 ?v_35 ?v_56 ?v_30 ?v_46 ?v_28 ?v_50 ?v_15 ?v_1 ?v_11 ?v_37 ?v_69 ?v_41 ?v_58 ?v_81 ?v_59 ?v_31) 0) (<= (+ ?v_60 ?v_37 ?v_11 ?v_8 ?v_48 ?v_3 ?v_59 ?v_77 ?v_9 ?v_5 ?v_80 ?v_16 ?v_61 ?v_32 ?v_57 ?v_84 ?v_35 ?v_7 ?v_58 ?v_8 ?v_48 ?v_59 ?v_7 ?v_17 ?v_20 ?v_23 ?v_37 ?v_32 ?v_49 ?v_0) 1) (<= (+ ?v_62 ?v_56 ?v_26 ?v_48 ?v_18 ?v_50 ?v_18 ?v_21 ?v_3 ?v_63 ?v_50 ?v_0 ?v_64 ?v_65 ?v_72 ?v_37 ?v_36 ?v_19 ?v_61 ?v_17 ?v_65 ?v_32 ?v_54 ?v_25 ?v_28 ?v_66 ?v_13 ?v_40 ?v_18 ?v_7) (- 1)) (<= (+ ?v_13 ?v_37 ?v_78 ?v_52 ?v_67 ?v_63 ?v_29 ?v_68 ?v_58 ?v_69 ?v_73 ?v_70 ?v_20 ?v_1 ?v_51 ?v_41 ?v_65 ?v_8 ?v_4 ?v_36 ?v_28 ?v_46 ?v_10 ?v_52 ?v_43 ?v_56 ?v_48 ?v_1 ?v_49 ?v_4) 0) (<= (+ ?v_38 ?v_27 ?v_62 ?v_71 ?v_22 ?v_2 ?v_60 ?v_13 ?v_41 ?v_26 ?v_44 ?v_12 ?v_14 ?v_70 ?v_55 ?v_32 ?v_21 ?v_21 ?v_30 ?v_72 ?v_2 ?v_61 ?v_56 ?v_28 ?v_73 ?v_86 ?v_46 ?v_17 ?v_57 ?v_19) 0) (<= (+ ?v_58 ?v_59 ?v_74 ?v_43 ?v_29 ?v_24 ?v_14 ?v_73 ?v_45 ?v_27 ?v_40 ?v_48 ?v_26 ?v_11 ?v_56 ?v_36 ?v_55 ?v_38 ?v_5 ?v_37 ?v_59 ?v_75 ?v_54 ?v_23 ?v_58 ?v_50 ?v_46 ?v_58 ?v_56 ?v_27) 0) (<= (+ ?v_54 ?v_37 ?v_5 ?v_43 ?v_76 ?v_61 ?v_51 ?v_63 ?v_30 ?v_32 ?v_18 ?v_62 ?v_77 ?v_31 ?v_14 ?v_77 ?v_60 ?v_77 ?v_78 ?v_79 ?v_37 ?v_67 ?v_87 ?v_63 ?v_18 ?v_13 ?v_51 ?v_38 ?v_78 ?v_0) (- 1)) (<= (+ ?v_68 ?v_51 ?v_24 ?v_53 ?v_24 ?v_62 ?v_61 ?v_17 ?v_28 ?v_68 ?v_78 ?v_73 ?v_28 ?v_60 ?v_46 ?v_24 ?v_43 ?v_80 ?v_20 ?v_33 ?v_54 ?v_2 ?v_55 ?v_45 ?v_31 ?v_53 ?v_53 ?v_69 ?v_31 ?v_11) 0) (<= (+ ?v_13 ?v_44 ?v_64 ?v_59 ?v_15 ?v_74 ?v_60 ?v_27 ?v_4 ?v_1 ?v_50 ?v_77 ?v_71 ?v_1 ?v_44 ?v_81 ?v_69 ?v_82 ?v_25 ?v_28 ?v_25 ?v_31 ?v_0 ?v_9 ?v_58 ?v_22 ?v_40 ?v_74 ?v_12 ?v_28) 0) (<= (+ ?v_12 ?v_23 ?v_31 ?v_83 ?v_14 ?v_13 ?v_39 ?v_60 ?v_21 ?v_41 ?v_35 ?v_33 ?v_23 ?v_84 ?v_20 ?v_8 ?v_51 ?v_4 ?v_4 ?v_5 ?v_0 ?v_37 ?v_13 ?v_61 ?v_32 ?v_77 ?v_7 ?v_75 ?v_0 ?v_5) 0) (<= (+ ?v_58 ?v_38 ?v_61 ?v_28 ?v_5 ?v_68 ?v_37 ?v_89 ?v_1 ?v_38 ?v_19 ?v_14 ?v_52 ?v_85 ?v_82 ?v_29 ?v_6 ?v_66 ?v_48 ?v_11 ?v_84 ?v_11 ?v_74 ?v_36 ?v_48 ?v_20 ?v_69 ?v_52 ?v_61 ?v_34) (- 1)) (<= (+ ?v_43 ?v_62 ?v_77 ?v_9 ?v_30 ?v_15 ?v_50 ?v_30 ?v_17 ?v_60 ?v_35 ?v_29 ?v_71 ?v_49 ?v_5 ?v_4 ?v_61 ?v_84 ?v_66 ?v_4 ?v_64 ?v_9 ?v_16 ?v_40 ?v_9 ?v_86 ?v_2 ?v_78 ?v_23 ?v_76) 0) (<= (+ ?v_8 ?v_57 ?v_32 ?v_67 ?v_68 ?v_50 ?v_67 ?v_4 ?v_17 ?v_8 ?v_40 ?v_84 ?v_51 ?v_27 ?v_81 ?v_2 ?v_58 ?v_76 ?v_24 ?v_11 ?v_70 ?v_58 ?v_39 ?v_18 ?v_29 ?v_31 ?v_75 ?v_14 ?v_51 ?v_60) 0) (<= (+ ?v_62 ?v_58 ?v_70 ?v_17 ?v_41 ?v_22 ?v_63 ?v_80 ?v_29 ?v_33 ?v_32 ?v_79 ?v_60 ?v_0 ?v_44 ?v_63 ?v_56 ?v_53 ?v_36 ?v_19 ?v_47 ?v_0 ?v_45 ?v_24 ?v_87 ?v_38 ?v_85 ?v_16 ?v_18 ?v_32) 1) (<= (+ ?v_12 ?v_45 ?v_21 ?v_78 ?v_70 ?v_7 ?v_57 ?v_55 ?v_9 ?v_9 ?v_0 ?v_39 ?v_20 ?v_48 ?v_33 ?v_41 ?v_32 ?v_11 ?v_40 ?v_79 ?v_57 ?v_30 ?v_12 ?v_88 ?v_72 ?v_35 ?v_48 ?v_47 ?v_18 ?v_81) 1) (<= (+ ?v_10 ?v_75 ?v_61 ?v_36 ?v_46 ?v_27 ?v_26 ?v_15 ?v_37 ?v_38 ?v_42 ?v_1 ?v_79 ?v_37 ?v_14 ?v_42 ?v_10 ?v_56 ?v_29 ?v_9 ?v_70 ?v_0 ?v_32 ?v_48 ?v_12 ?v_15 ?v_13 ?v_78 ?v_13 ?v_50) 0) (<= (+ ?v_43 ?v_31 ?v_34 ?v_24 ?v_52 ?v_3 ?v_31 ?v_1 ?v_81 ?v_20 ?v_0 ?v_13 ?v_28 ?v_24 ?v_12 ?v_72 ?v_82 ?v_40 ?v_59 ?v_41 ?v_9 ?v_41 ?v_46 ?v_39 ?v_58 ?v_43 ?v_2 ?v_24 ?v_47 ?v_65) 1) (<= (+ ?v_44 ?v_44 ?v_50 ?v_60 ?v_12 ?v_4 ?v_82 ?v_5 ?v_20 ?v_59 ?v_4 ?v_40 ?v_0 ?v_50 ?v_45 ?v_15 ?v_24 ?v_1 ?v_66 ?v_21 ?v_24 ?v_45 ?v_45 ?v_7 ?v_45 ?v_77 ?v_6 ?v_71 ?v_16 ?v_53) 1) (<= (+ ?v_75 ?v_50 ?v_24 ?v_31 ?v_37 ?v_4 ?v_83 ?v_43 ?v_62 ?v_67 ?v_88 ?v_73 ?v_24 ?v_37 ?v_53 ?v_64 ?v_28 ?v_29 ?v_2 ?v_76 ?v_41 ?v_52 ?v_35 ?v_85 ?v_88 ?v_9 ?v_67 ?v_79 ?v_20 ?v_18) (- 1)) (<= (+ ?v_37 ?v_1 ?v_73 ?v_56 ?v_68 ?v_48 ?v_40 ?v_9 ?v_28 ?v_73 ?v_60 ?v_29 ?v_52 ?v_2 ?v_46 ?v_77 ?v_32 ?v_20 ?v_27 ?v_76 ?v_9 ?v_76 ?v_82 ?v_71 ?v_15 ?v_28 ?v_51 ?v_2 ?v_37 ?v_37) (- 1)) (<= (+ ?v_34 ?v_68 ?v_58 ?v_89 ?v_1 ?v_37 ?v_26 ?v_22 ?v_46 ?v_44 ?v_42 ?v_70 ?v_81 ?v_35 ?v_25 ?v_36 ?v_87 ?v_16 ?v_80 ?v_3 ?v_16 ?v_12 ?v_45 ?v_28 ?v_34 ?v_49 ?v_65 ?v_77 ?v_79 ?v_55) 1) (<= (+ ?v_67 ?v_56 ?v_39 ?v_86 ?v_55 ?v_69 ?v_38 ?v_26 ?v_15 ?v_13 ?v_30 ?v_30 ?v_44 ?v_14 ?v_3 ?v_23 ?v_61 ?v_16 ?v_47 ?v_58 ?v_16 ?v_31 ?v_51 ?v_51 ?v_14 ?v_82 ?v_33 ?v_78 ?v_40 ?v_10) (- 1)) (<= (+ ?v_34 ?v_89 ?v_31 ?v_6 ?v_84 ?v_61 ?v_17 ?v_11 ?v_31 ?v_79 ?v_67 ?v_7 ?v_40 ?v_26 ?v_79 ?v_72 ?v_30 ?v_54 ?v_5 ?v_40 ?v_37 ?v_29 ?v_9 ?v_15 ?v_82 ?v_40 ?v_72 ?v_72 ?v_40 ?v_24) (- 1)) (<= (+ ?v_38 ?v_79 ?v_76 ?v_13 ?v_9 ?v_70 ?v_40 ?v_43 ?v_9 ?v_7 ?v_42 ?v_31 ?v_76 ?v_70 ?v_18 ?v_30 ?v_54 ?v_60 ?v_16 ?v_22 ?v_20 ?v_40 ?v_54 ?v_17 ?v_26 ?v_15 ?v_27 ?v_16 ?v_68 ?v_37) (- 1)) (<= (+ ?v_65 ?v_15 ?v_52 ?v_16 ?v_84 ?v_17 ?v_15 ?v_61 ?v_28 ?v_39 ?v_6 ?v_59 ?v_45 ?v_74 ?v_13 ?v_7 ?v_17 ?v_59 ?v_28 ?v_86 ?v_36 ?v_48 ?v_10 ?v_14 ?v_40 ?v_11 ?v_14 ?v_33 ?v_24 ?v_1) 0) (<= (+ ?v_59 ?v_56 ?v_62 ?v_28 ?v_89 ?v_48 ?v_32 ?v_61 ?v_24 ?v_13 ?v_69 ?v_48 ?v_59 ?v_80 ?v_22 ?v_4 ?v_14 ?v_39 ?v_83 ?v_27 ?v_44 ?v_31 ?v_61 ?v_77 ?v_52 ?v_37 ?v_9 ?v_14 ?v_17 ?v_14) 0) (<= (+ ?v_52 ?v_0 ?v_61 ?v_21 ?v_55 ?v_7 ?v_40 ?v_53 ?v_59 ?v_24 ?v_50 ?v_14 ?v_62 ?v_30 ?v_55 ?v_14 ?v_59 ?v_67 ?v_12 ?v_50 ?v_48 ?v_37 ?v_28 ?v_5 ?v_18 ?v_15 ?v_19 ?v_2 ?v_32 ?v_10) 1) (<= (+ ?v_63 ?v_72 ?v_5 ?v_51 ?v_48 ?v_15 ?v_23 ?v_59 ?v_43 ?v_14 ?v_81 ?v_60 ?v_32 ?v_78 ?v_37 ?v_53 ?v_78 ?v_54 ?v_34 ?v_85 ?v_20 ?v_81 ?v_0 ?v_86 ?v_14 ?v_9 ?v_16 ?v_0 ?v_61 ?v_7) 1) (<= (+ ?v_9 ?v_83 ?v_2 ?v_53 ?v_20 ?v_37 ?v_14 ?v_55 ?v_3 ?v_15 ?v_14 ?v_2 ?v_16 ?v_20 ?v_72 ?v_71 ?v_11 ?v_12 ?v_18 ?v_89 ?v_47 ?v_80 ?v_69 ?v_42 ?v_73 ?v_77 ?v_80 ?v_49 ?v_49 ?v_9) 0) (<= (+ ?v_43 ?v_15 ?v_65 ?v_49 ?v_84 ?v_20 ?v_89 ?v_71 ?v_27 ?v_20 ?v_87 ?v_62 ?v_81 ?v_56 ?v_13 ?v_59 ?v_0 ?v_0 ?v_82 ?v_74 ?v_46 ?v_12 ?v_89 ?v_68 ?v_0 ?v_79 ?v_54 ?v_59 ?v_47 ?v_73) 0) (<= (+ ?v_2 ?v_63 ?v_63 ?v_47 ?v_9 ?v_28 ?v_33 ?v_51 ?v_5 ?v_36 ?v_41 ?v_45 ?v_32 ?v_85 ?v_46 ?v_80 ?v_69 ?v_45 ?v_50 ?v_36 ?v_9 ?v_13 ?v_21 ?v_17 ?v_49 ?v_84 ?v_41 ?v_1 ?v_54 ?v_48) 1) (<= (+ ?v_67 ?v_0 ?v_53 ?v_83 ?v_44 ?v_84 ?v_3 ?v_43 ?v_45 ?v_10 ?v_83 ?v_50 ?v_65 ?v_32 ?v_30 ?v_17 ?v_79 ?v_49 ?v_54 ?v_48 ?v_8 ?v_12 ?v_55 ?v_24 ?v_5 ?v_5 ?v_79 ?v_4 ?v_59 ?v_66) 1) (<= (+ ?v_19 ?v_60 ?v_50 ?v_13 ?v_79 ?v_2 ?v_59 ?v_19 ?v_2 ?v_89 ?v_27 ?v_11 ?v_8 ?v_11 ?v_84 ?v_85 ?v_29 ?v_69 ?v_51 ?v_22 ?v_9 ?v_31 ?v_41 ?v_50 ?v_32 ?v_9 ?v_83 ?v_46 ?v_61 ?v_69) 1) (<= (+ ?v_6 ?v_62 ?v_82 ?v_47 ?v_0 ?v_18 ?v_62 ?v_69 ?v_49 ?v_15 ?v_70 ?v_70 ?v_0 ?v_17 ?v_51 ?v_39 ?v_83 ?v_30 ?v_82 ?v_43 ?v_35 ?v_45 ?v_24 ?v_0 ?v_85 ?v_78 ?v_69 ?v_41 ?v_32 ?v_31) 1) (<= (+ ?v_52 ?v_46 ?v_5 ?v_31 ?v_50 ?v_37 ?v_64 ?v_79 ?v_65 ?v_15 ?v_57 ?v_57 ?v_32 ?v_53 ?v_28 ?v_9 ?v_2 ?v_61 ?v_8 ?v_14 ?v_7 ?v_31 ?v_8 ?v_59 ?v_33 ?v_43 ?v_74 ?v_61 ?v_11 ?v_18) 0) (<= (+ ?v_32 ?v_89 ?v_18 ?v_23 ?v_76 ?v_24 ?v_37 ?v_60 ?v_77 ?v_15 ?v_0 ?v_49 ?v_55 ?v_7 ?v_1 ?v_76 ?v_29 ?v_24 ?v_71 ?v_35 ?v_29 ?v_26 ?v_71 ?v_54 ?v_60 ?v_18 ?v_66 ?v_67 ?v_37 ?v_18) (- 1)) (<= (+ ?v_72 ?v_55 ?v_88 ?v_4 ?v_69 ?v_30 ?v_30 ?v_30 ?v_33 ?v_41 ?v_76 ?v_24 ?v_11 ?v_15 ?v_42 ?v_4 ?v_22 ?v_42 ?v_81 ?v_51 ?v_41 ?v_13 ?v_0 ?v_17 ?v_32 ?v_16 ?v_20 ?v_12 ?v_31 ?v_64) 0) (<= (+ ?v_81 ?v_31 ?v_77 ?v_9 ?v_30 ?v_41 ?v_30 ?v_1 ?v_27 ?v_79 ?v_31 ?v_6 ?v_28 ?v_60 ?v_18 ?v_38 ?v_8 ?v_72 ?v_13 ?v_24 ?v_85 ?v_88 ?v_63 ?v_68 ?v_0 ?v_15 ?v_23 ?v_2 ?v_82 ?v_83) (- 1)) (<= (+ ?v_51 ?v_62 ?v_80 ?v_58 ?v_79 ?v_86 ?v_38 ?v_54 ?v_78 ?v_1 ?v_4 ?v_32 ?v_33 ?v_24 ?v_52 ?v_32 ?v_48 ?v_66 ?v_89 ?v_62 ?v_43 ?v_11 ?v_77 ?v_8 ?v_4 ?v_48 ?v_0 ?v_32 ?v_22 ?v_1) 1) (<= (+ ?v_52 ?v_75 ?v_87 ?v_31 ?v_46 ?v_18 ?v_47 ?v_73 ?v_4 ?v_32 ?v_67 ?v_21 ?v_70 ?v_62 ?v_2 ?v_61 ?v_58 ?v_10 ?v_9 ?v_53 ?v_16 ?v_74 ?v_40 ?v_53 ?v_40 ?v_49 ?v_53 ?v_50 ?v_59 ?v_24) 1) (<= (+ ?v_55 ?v_49 ?v_35 ?v_7 ?v_44 ?v_41 ?v_69 ?v_57 ?v_59 ?v_14 ?v_61 ?v_28 ?v_81 ?v_39 ?v_78 ?v_77 ?v_32 ?v_81 ?v_11 ?v_43 ?v_58 ?v_34 ?v_82 ?v_2 ?v_2 ?v_60 ?v_20 ?v_31 ?v_77 ?v_5) (- 1)) (<= (+ ?v_65 ?v_71 ?v_29 ?v_21 ?v_51 ?v_42 ?v_74 ?v_7 ?v_0 ?v_51 ?v_77 ?v_61 ?v_16 ?v_29 ?v_55 ?v_29 ?v_2 ?v_7 ?v_32 ?v_72 ?v_28 ?v_41 ?v_50 ?v_61 ?v_29 ?v_6 ?v_74 ?v_60 ?v_27 ?v_60) 1) (<= (+ ?v_81 ?v_65 ?v_51 ?v_49 ?v_45 ?v_53 ?v_7 ?v_66 ?v_69 ?v_41 ?v_44 ?v_1 ?v_39 ?v_0 ?v_0 ?v_89 ?v_77 ?v_57 ?v_17 ?v_39 ?v_59 ?v_51 ?v_31 ?v_51 ?v_13 ?v_70 ?v_31 ?v_29 ?v_41 ?v_25) 0) (<= (+ ?v_44 ?v_61 ?v_74 ?v_29 ?v_7 ?v_3 ?v_52 ?v_58 ?v_61 ?v_18 ?v_48 ?v_32 ?v_80 ?v_55 ?v_17 ?v_61 ?v_50 ?v_2 ?v_9 ?v_59 ?v_60 ?v_17 ?v_24 ?v_42 ?v_52 ?v_3 ?v_34 ?v_82 ?v_7 ?v_60) 1))))
(check-sat)
(exit)
